\ENCODING=ISO-8859-1
\Problem name: 

Minimize
 obj: W + 17.3584112656676 x1_1 + 10.727257500285 x1_2 + 18.3266487254589 x1_3
      + 10.8641496256092 x1_4 + 11.6100444316722 x2_1 + 20.229170591521 x2_2
      + 10.840564399467 x2_3 + 11.8323311597861 x2_4 + 16.6257610171706 x3_1
      + 29.0787684714609 x3_2 + 16.8297519793128 x3_3 + 10.0405808944092 x3_4
      + 11.953374474276 x4_1 + 17.0884742968519 x4_2 + 19.1073782569658 x4_3
      + 26.3670221136851 x4_4 + 28.6656972624978 x5_1 + 20.5642292467625 x5_2
      + 13.8742762953265 x5_3 + 11.6675539328654 x5_4 + 12.6698783657462 x6_1
      + 19.9987894256596 x6_2 + 23.9681993455758 x6_3 + 23.0675739907384 x6_4
      + 16.4288003303773 x7_1 + 21.2776157533544 x7_2 + 20.2210131052493 x7_3
      + 16.82683283803 x7_4 + 25.0192534506717 x8_1 + 27.7670559853304 x8_2
      + 13.8309738401934 x8_3 + 18.9073001836057 x8_4 + 11.2917555228343 x9_1
      + 15.0059271867392 x9_2 + 12.588840794103 x9_3 + 23.4699145114846 x9_4
      + 16.7479196684354 x10_1 + 20.3333061486237 x10_2
      + 11.4218089962338 x10_3 + 17.7426887845268 x10_4
Subject To
 c1:  x1_1 + x1_2 + x1_3 + x1_4  = 1
 c2:  x2_1 + x2_2 + x2_3 + x2_4  = 1
 c3:  x3_1 + x3_2 + x3_3 + x3_4  = 1
 c4:  x4_1 + x4_2 + x4_3 + x4_4  = 1
 c5:  x5_1 + x5_2 + x5_3 + x5_4  = 1
 c6:  x6_1 + x6_2 + x6_3 + x6_4  = 1
 c7:  x7_1 + x7_2 + x7_3 + x7_4  = 1
 c8:  x8_1 + x8_2 + x8_3 + x8_4  = 1
 c9:  x9_1 + x9_2 + x9_3 + x9_4  = 1
 c10: x10_1 + x10_2 + x10_3 + x10_4  = 1
 c11: y1 + y2 + y3 + y4  = 2
 c12: - x1_1 + y1 >= 0
 c13: - x1_2 + y2 >= 0
 c14: - x1_3 + y3 >= 0
 c15: - x1_4 + y4 >= 0
 c16: - x2_1 + y1 >= 0
 c17: - x2_2 + y2 >= 0
 c18: - x2_3 + y3 >= 0
 c19: - x2_4 + y4 >= 0
 c20: - x3_1 + y1 >= 0
 c21: - x3_2 + y2 >= 0
 c22: - x3_3 + y3 >= 0
 c23: - x3_4 + y4 >= 0
 c24: - x4_1 + y1 >= 0
 c25: - x4_2 + y2 >= 0
 c26: - x4_3 + y3 >= 0
 c27: - x4_4 + y4 >= 0
 c28: - x5_1 + y1 >= 0
 c29: - x5_2 + y2 >= 0
 c30: - x5_3 + y3 >= 0
 c31: - x5_4 + y4 >= 0
 c32: - x6_1 + y1 >= 0
 c33: - x6_2 + y2 >= 0
 c34: - x6_3 + y3 >= 0
 c35: - x6_4 + y4 >= 0
 c36: - x7_1 + y1 >= 0
 c37: - x7_2 + y2 >= 0
 c38: - x7_3 + y3 >= 0
 c39: - x7_4 + y4 >= 0
 c40: - x8_1 + y1 >= 0
 c41: - x8_2 + y2 >= 0
 c42: - x8_3 + y3 >= 0
 c43: - x8_4 + y4 >= 0
 c44: - x9_1 + y1 >= 0
 c45: - x9_2 + y2 >= 0
 c46: - x9_3 + y3 >= 0
 c47: - x9_4 + y4 >= 0
 c48: - x10_1 + y1 >= 0
 c49: - x10_2 + y2 >= 0
 c50: - x10_3 + y3 >= 0
 c51: - x10_4 + y4 >= 0
 c52: 9 x1_1 + 11 x2_1 + 8 x3_1 + 8 x4_1 + 11 x5_1 + 10 x6_1 + 10 x7_1 + 9 x8_1
      + 9 x9_1 + 10 x10_1 <= 63
 c53: 9 x1_2 + 11 x2_2 + 8 x3_2 + 8 x4_2 + 11 x5_2 + 10 x6_2 + 10 x7_2 + 9 x8_2
      + 9 x9_2 + 10 x10_2 <= 62
 c54: 9 x1_3 + 11 x2_3 + 8 x3_3 + 8 x4_3 + 11 x5_3 + 10 x6_3 + 10 x7_3 + 9 x8_3
      + 9 x9_3 + 10 x10_3 <= 58
 c55: 9 x1_4 + 11 x2_4 + 8 x3_4 + 8 x4_4 + 11 x5_4 + 10 x6_4 + 10 x7_4 + 9 x8_4
      + 9 x9_4 + 10 x10_4 <= 58
 c56: - W + 17.3584112656676 x1_1 + 10.727257500285 x1_2
      + 18.3266487254589 x1_3 + 10.8641496256092 x1_4 <= 0
 c57: - W + 11.6100444316722 x2_1 + 20.229170591521 x2_2 + 10.840564399467 x2_3
      + 11.8323311597861 x2_4 <= 0
 c58: - W + 16.6257610171706 x3_1 + 29.0787684714609 x3_2
      + 16.8297519793128 x3_3 + 10.0405808944092 x3_4 <= 0
 c59: - W + 11.953374474276 x4_1 + 17.0884742968519 x4_2
      + 19.1073782569658 x4_3 + 26.3670221136851 x4_4 <= 0
 c60: - W + 28.6656972624978 x5_1 + 20.5642292467625 x5_2
      + 13.8742762953265 x5_3 + 11.6675539328654 x5_4 <= 0
 c61: - W + 12.6698783657462 x6_1 + 19.9987894256596 x6_2
      + 23.9681993455758 x6_3 + 23.0675739907384 x6_4 <= 0
 c62: - W + 16.4288003303773 x7_1 + 21.2776157533544 x7_2
      + 20.2210131052493 x7_3 + 16.82683283803 x7_4 <= 0
 c63: - W + 25.0192534506717 x8_1 + 27.7670559853304 x8_2
      + 13.8309738401934 x8_3 + 18.9073001836057 x8_4 <= 0
 c64: - W + 11.2917555228343 x9_1 + 15.0059271867392 x9_2
      + 12.588840794103 x9_3 + 23.4699145114846 x9_4 <= 0
 c65: - W + 16.7479196684354 x10_1 + 20.3333061486237 x10_2
      + 11.4218089962338 x10_3 + 17.7426887845268 x10_4 <= 0
Bounds
 0 <= x1_1 <= 1
 0 <= x1_2 <= 1
 0 <= x1_3 <= 1
 0 <= x1_4 <= 1
 0 <= x2_1 <= 1
 0 <= x2_2 <= 1
 0 <= x2_3 <= 1
 0 <= x2_4 <= 1
 0 <= x3_1 <= 1
 0 <= x3_2 <= 1
 0 <= x3_3 <= 1
 0 <= x3_4 <= 1
 0 <= x4_1 <= 1
 0 <= x4_2 <= 1
 0 <= x4_3 <= 1
 0 <= x4_4 <= 1
 0 <= x5_1 <= 1
 0 <= x5_2 <= 1
 0 <= x5_3 <= 1
 0 <= x5_4 <= 1
 0 <= x6_1 <= 1
 0 <= x6_2 <= 1
 0 <= x6_3 <= 1
 0 <= x6_4 <= 1
 0 <= x7_1 <= 1
 0 <= x7_2 <= 1
 0 <= x7_3 <= 1
 0 <= x7_4 <= 1
 0 <= x8_1 <= 1
 0 <= x8_2 <= 1
 0 <= x8_3 <= 1
 0 <= x8_4 <= 1
 0 <= x9_1 <= 1
 0 <= x9_2 <= 1
 0 <= x9_3 <= 1
 0 <= x9_4 <= 1
 0 <= x10_1 <= 1
 0 <= x10_2 <= 1
 0 <= x10_3 <= 1
 0 <= x10_4 <= 1
 0 <= y1 <= 1
 0 <= y2 <= 1
 0 <= y3 <= 1
 0 <= y4 <= 1
Binaries
 x1_1  x1_2  x1_3  x1_4  x2_1  x2_2  x2_3  x2_4  x3_1  x3_2  x3_3  x3_4  x4_1 
 x4_2  x4_3  x4_4  x5_1  x5_2  x5_3  x5_4  x6_1  x6_2  x6_3  x6_4  x7_1  x7_2 
 x7_3  x7_4  x8_1  x8_2  x8_3  x8_4  x9_1  x9_2  x9_3  x9_4  x10_1  x10_2 
 x10_3  x10_4  y1  y2  y3  y4 
End
